<number of tasks>
89

<cycle time>
11

<task times>
1 1
2 2
3 3
4 4
5 5
6 6
7 7
8 8
9 9
10 10
11 1
12 2
13 3
14 4
15 5
16 6
17 7
18 8
19 9
20 10
21 1
22 2
23 3
24 4
25 5
26 6
27 7
28 8
29 9
30 10
31 1
32 2
33 3
34 4
35 5
36 6
37 7
38 8
39 9
40 10
41 1
42 2
43 3
44 4
45 5
46 6
47 7
48 8
49 9
50 10
51 1
52 2
53 3
54 4
55 5
56 6
57 7
58 8
59 9
60 10
61 1
62 2
63 3
64 4
65 5
66 6
67 7
68 8
69 9
70 10
71 1
72 2
73 3
74 4
75 5
76 6
77 7
78 8
79 9
80 10
81 1
82 2
83 3
84 4
85 5
86 6
87 7
88 8
89 9

<precedence relations>
1,2
2,3
3,4
4,5
4,6
4,7
4,8
4,9
5,10
6,11
7,12
8,18
9,18
10,14
11,12
12,13
13,14
14,15
14,16
15,17
16,54
17,18
18,19
18,20
19,22
20,21
20,28
21,54
22,23
23,24
24,25
25,26
25,27
25,29
26,37
27,33
28,29
29,31
30,54
31,32
32,33
33,34
34,35
35,36
35,37
36,38
37,38
38,39
39,40
39,41
39,42
39,43
40,44
41,53
42,53
43,45
44,52
45,46
46,47
47,48
47,49
49,50
50,51
51,52
52,53
53,68
53,69
53,70
53,71
54,55
55,56
56,57
57,58
57,59
57,60
57,61
57,62
57,63
57,64
57,65
57,66
58,67
59,67
60,67
61,67
62,67
63,67
64,67
65,67
66,67
67,73
68,72
69,72
70,72
71,73
72,78
72,80
73,74
74,75
74,76
75,77
76,81
77,78
78,79
79,81
80,81
81,82
81,84
81,85
82,83
83,86
84,86
85,86
86,87
87,88
87,89

<setup times forward>
1,30:2
2,30:2
3,30:2
4,5:1
4,6:1
4,7:1
4,30:2
5,7:2
5,8:1
5,9:1
5,10:1
5,11:2
5,12:2
5,13:1
5,30:3
6,7:2
6,8:1
6,9:1
6,10:1
6,11:2
6,30:3
7,5:2
7,6:2
7,8:1
7,9:1
7,10:1
7,30:1
8,5:1
8,6:1
8,7:1
8,11:1
8,12:1
8,14:1
8,15:1
8,17:2
8,18:1
8,30:2
9,5:1
9,6:1
9,7:1
9,11:1
9,12:1
9,14:1
9,15:1
9,17:2
9,18:1
9,30:2
10,6:1
10,7:1
10,11:1
10,12:1
10,14:1
10,30:2
11,5:2
11,8:1
11,9:1
11,10:1
11,30:1
12,5:2
12,8:1
12,9:1
12,10:1
12,13:1
12,30:1
13,5:1
13,14:1
13,30:2
14,8:1
14,9:1
14,16:1
14,30:1
15,8:1
15,9:1
15,16:1
15,17:1
15,30:1
16,15:1
16,17:2
16,18:1
16,19:2
16,20:1
16,21:1
16,22:2
16,26:1
16,27:1
16,28:1
16,29:2
16,30:2
16,31:2
16,32:1
16,33:1
16,34:1
16,35:1
16,36:1
16,37:2
16,38:1
16,39:1
16,40:1
16,41:2
16,42:2
16,43:1
16,45:2
16,46:2
16,47:2
16,48:2
16,52:2
16,54:1
16,69:2
16,70:1
16,71:1
16,72:2
16,80:2
17,8:2
17,9:2
17,16:2
17,18:3
18,16:1
18,19:3
18,20:2
18,30:3
19,16:2
19,20:1
19,21:1
19,28:3
19,54:3
19,55:2
19,56:2
19,57:3
19,58:1
19,59:2
19,62:1
19,63:3
19,65:3
19,66:3
19,67:2
20,16:1
20,19:1
20,22:1
20,23:1
20,24:1
20,25:1
20,27:2
20,28:2
20,30:1
21,16:1
21,19:1
21,22:1
21,23:1
21,24:1
21,25:1
21,27:2
21,28:2
21,29:1
21,30:1
21,31:1
21,34:2
21,35:2
21,36:2
21,37:1
21,38:2
21,40:2
21,41:1
21,42:1
21,44:1
21,45:1
21,46:1
21,47:1
21,48:1
21,49:1
21,50:1
21,51:1
21,52:1
21,53:1
21,54:2
21,68:1
21,69:1
21,70:2
21,72:1
21,80:1
22,16:2
22,20:1
22,21:1
22,23:2
22,28:3
22,54:3
22,55:2
22,56:2
22,57:3
22,58:1
22,59:2
22,62:1
22,63:3
22,65:3
22,66:3
22,67:2
23,20:1
23,21:1
23,28:1
23,30:2
23,54:1
23,57:1
23,58:1
23,60:2
23,61:2
23,62:1
23,63:1
23,64:2
23,65:1
23,66:1
24,20:1
24,21:1
24,28:1
24,30:2
24,54:1
24,57:1
24,58:1
24,60:2
24,61:2
24,62:1
24,63:1
24,64:2
24,65:1
24,66:1
25,20:1
25,21:1
25,26:1
25,27:1
25,28:1
25,29:2
25,30:2
25,54:1
25,57:1
25,58:1
25,60:2
25,61:2
25,62:1
25,63:1
25,64:2
25,65:1
25,66:1
26,16:1
26,27:2
26,28:2
26,29:1
26,30:1
26,31:1
26,34:2
26,35:2
26,36:2
26,37:1
26,54:2
26,55:1
26,56:1
26,57:2
26,59:1
26,60:1
26,61:1
26,63:2
26,64:1
26,65:2
26,66:2
26,67:1
27,16:1
27,20:2
27,21:2
27,26:2
27,29:3
27,30:3
27,31:3
27,32:2
27,33:2
27,55:1
27,56:1
27,58:2
27,59:1
27,60:3
27,61:3
27,62:2
27,64:3
27,67:1
28,16:1
28,19:3
28,21:2
28,22:3
28,23:1
28,24:1
28,25:1
28,26:2
28,29:3
28,30:3
28,55:1
28,56:1
28,58:2
28,59:1
28,60:3
28,61:3
28,62:2
28,64:3
28,67:1
29,16:2
29,21:1
29,26:1
29,27:3
29,54:3
29,55:2
29,56:2
29,57:3
29,58:1
29,59:2
29,62:1
29,63:3
29,65:3
29,66:3
29,67:2
30,1:2
30,2:2
30,3:2
30,4:2
30,5:3
30,6:3
30,7:1
30,8:2
30,9:2
30,10:2
30,11:1
30,12:1
30,13:2
30,14:1
30,15:1
30,16:2
30,18:3
30,20:1
30,21:1
30,23:2
30,24:2
30,25:2
30,26:1
30,27:3
30,28:3
30,32:1
30,33:1
30,34:3
30,35:3
30,36:3
30,38:3
30,39:1
30,40:3
30,43:1
30,44:2
30,49:2
30,50:2
30,51:2
30,53:2
30,54:3
30,68:2
30,70:3
30,71:1
31,16:2
31,21:1
31,26:1
31,27:3
31,32:1
31,54:3
31,55:2
31,56:2
31,57:3
31,58:1
31,59:2
31,62:1
31,63:3
31,65:3
31,66:3
31,67:2
32,16:1
32,27:2
32,30:1
32,54:2
32,55:1
32,56:1
32,57:2
32,59:1
32,60:1
32,61:1
32,63:2
32,64:1
32,65:2
32,66:2
32,67:1
33,16:1
33,30:1
33,34:2
33,54:2
33,55:1
33,56:1
33,57:2
33,59:1
33,60:1
33,61:1
33,63:2
33,64:1
33,65:2
33,66:2
33,67:1
34,16:1
34,21:2
34,26:2
34,30:3
34,55:1
34,56:1
34,58:2
34,59:1
34,60:3
34,61:3
34,62:2
34,64:3
34,67:1
35,16:1
35,21:2
35,26:2
35,30:3
35,37:3
35,55:1
35,56:1
35,58:2
35,59:1
35,60:3
35,61:3
35,62:2
35,64:3
35,67:1
36,16:1
36,21:2
36,26:2
36,30:3
36,37:3
36,55:1
36,56:1
36,58:2
36,59:1
36,60:3
36,61:3
36,62:2
36,64:3
36,67:1
37,16:2
37,21:1
37,36:3
37,38:3
37,54:3
37,55:2
37,56:2
37,57:3
37,58:1
37,59:2
37,62:1
37,63:3
37,65:3
37,66:3
37,67:2
38,16:1
38,21:2
38,30:3
38,39:2
38,55:1
38,56:1
38,58:2
38,59:1
38,60:3
38,61:3
38,62:2
38,64:3
38,67:1
39,16:1
39,30:1
39,40:2
39,41:1
39,42:1
39,54:2
39,55:1
39,56:1
39,57:2
39,59:1
39,60:1
39,61:1
39,63:2
39,64:1
39,65:2
39,66:2
39,67:1
40,16:1
40,21:2
40,30:3
40,41:3
40,42:3
40,43:2
40,44:1
40,45:3
40,46:3
40,47:3
40,48:3
40,49:1
40,50:1
40,51:1
40,55:1
40,56:1
40,58:2
40,59:1
40,60:3
40,61:3
40,62:2
40,64:3
40,67:1
41,16:2
41,21:1
41,40:3
41,43:1
41,44:2
41,49:2
41,50:2
41,51:2
41,53:2
41,54:3
41,55:2
41,56:2
41,57:3
41,58:1
41,59:2
41,62:1
41,63:3
41,65:3
41,66:3
41,67:2
42,16:2
42,21:1
42,40:3
42,43:1
42,44:2
42,49:2
42,50:2
42,51:2
42,53:2
42,54:3
42,55:2
42,56:2
42,57:3
42,58:1
42,59:2
42,62:1
42,63:3
42,65:3
42,66:3
42,67:2
43,16:1
43,30:1
43,40:2
43,41:1
43,42:1
43,44:1
43,45:1
43,54:2
43,55:1
43,56:1
43,57:2
43,59:1
43,60:1
43,61:1
43,63:2
43,64:1
43,65:2
43,66:2
43,67:1
44,21:1
44,30:2
44,41:2
44,42:2
44,43:1
44,45:2
44,46:2
44,47:2
44,48:2
44,52:2
44,54:1
44,57:1
44,58:1
44,60:2
44,61:2
44,62:1
44,63:1
44,64:2
44,65:1
44,66:1
45,16:2
45,21:1
45,40:3
45,44:2
45,54:3
45,55:2
45,56:2
45,57:3
45,58:1
45,59:2
45,62:1
45,63:3
45,65:3
45,66:3
45,67:2
46,16:2
46,21:1
46,40:3
46,44:2
46,54:3
46,55:2
46,56:2
46,57:3
46,58:1
46,59:2
46,62:1
46,63:3
46,65:3
46,66:3
46,67:2
47,16:2
47,21:1
47,40:3
47,44:2
47,49:2
47,54:3
47,55:2
47,56:2
47,57:3
47,58:1
47,59:2
47,62:1
47,63:3
47,65:3
47,66:3
47,67:2
48,16:2
48,21:1
48,40:3
48,44:2
48,49:2
48,50:2
48,51:2
48,53:2
48,54:3
48,55:2
48,56:2
48,57:3
48,58:1
48,59:2
48,62:1
48,63:3
48,65:3
48,66:3
48,67:2
48,68:2
48,70:3
48,71:1
48,73:1
48,74:1
48,78:2
48,79:2
48,81:1
48,82:1
48,83:1
48,84:1
48,85:3
48,86:3
48,87:1
48,89:1
49,21:1
49,30:2
49,40:1
49,41:2
49,42:2
49,48:2
49,54:1
49,57:1
49,58:1
49,60:2
49,61:2
49,62:1
49,63:1
49,64:2
49,65:1
49,66:1
50,21:1
50,30:2
50,40:1
50,41:2
50,42:2
50,48:2
50,54:1
50,57:1
50,58:1
50,60:2
50,61:2
50,62:1
50,63:1
50,64:2
50,65:1
50,66:1
51,21:1
51,30:2
51,40:1
51,41:2
51,42:2
51,48:2
51,52:2
51,54:1
51,57:1
51,58:1
51,60:2
51,61:2
51,62:1
51,63:1
51,64:2
51,65:1
51,66:1
52,16:2
52,21:1
52,53:2
52,54:3
52,55:2
52,56:2
52,57:3
52,58:1
52,59:2
52,62:1
52,63:3
52,65:3
52,66:3
52,67:2
53,21:1
53,30:2
53,48:2
53,54:1
53,57:1
53,58:1
53,60:2
53,61:2
53,62:1
53,63:1
53,64:2
53,65:1
53,66:1
53,69:2
53,70:1
53,71:1
54,19:3
54,22:3
54,23:1
54,24:1
54,25:1
54,26:2
54,29:3
54,31:3
54,32:2
54,33:2
54,37:3
54,39:2
54,41:3
54,42:3
54,43:2
54,44:1
54,45:3
54,46:3
54,47:3
54,48:3
54,49:1
54,50:1
54,51:1
54,52:3
54,53:1
54,55:1
54,68:1
54,69:3
54,71:2
54,72:3
54,80:3
55,19:2
55,22:2
55,26:1
55,27:1
55,28:1
55,29:2
55,31:2
55,32:1
55,33:1
55,34:1
55,35:1
55,36:1
55,37:2
55,38:1
55,39:1
55,40:1
55,41:2
55,42:2
55,43:1
55,45:2
55,46:2
55,47:2
55,48:2
55,52:2
55,69:2
55,70:1
55,71:1
55,72:2
55,80:2
56,19:2
56,22:2
56,26:1
56,27:1
56,28:1
56,29:2
56,31:2
56,32:1
56,33:1
56,34:1
56,35:1
56,36:1
56,37:2
56,38:1
56,39:1
56,40:1
56,41:2
56,42:2
56,43:1
56,45:2
56,46:2
56,47:2
56,48:2
56,52:2
56,57:1
56,69:2
56,70:1
56,71:1
56,72:2
56,80:2
57,19:3
57,22:3
57,23:1
57,24:1
57,25:1
57,26:2
57,29:3
57,31:3
57,32:2
57,33:2
57,37:3
57,39:2
57,41:3
57,42:3
57,43:2
57,44:1
57,45:3
57,46:3
57,47:3
57,48:3
57,49:1
57,50:1
57,51:1
57,52:3
57,53:1
57,58:2
57,59:1
57,60:3
57,61:3
57,62:2
57,64:3
57,68:1
57,69:3
57,71:2
57,72:3
57,80:3
58,19:1
58,22:1
58,23:1
58,24:1
58,25:1
58,27:2
58,28:2
58,29:1
58,31:1
58,34:2
58,35:2
58,36:2
58,37:1
58,38:2
58,40:2
58,41:1
58,42:1
58,44:1
58,45:1
58,46:1
58,47:1
58,48:1
58,49:1
58,50:1
58,51:1
58,52:1
58,53:1
58,59:1
58,60:1
58,61:1
58,63:2
58,64:1
58,65:2
58,66:2
58,67:1
58,68:1
58,69:1
58,70:2
58,72:1
58,80:1
59,19:2
59,22:2
59,26:1
59,27:1
59,28:1
59,29:2
59,31:2
59,32:1
59,33:1
59,34:1
59,35:1
59,36:1
59,37:2
59,38:1
59,39:1
59,40:1
59,41:2
59,42:2
59,43:1
59,45:2
59,46:2
59,47:2
59,48:2
59,52:2
59,58:1
59,60:2
59,61:2
59,62:1
59,63:1
59,64:2
59,65:1
59,66:1
59,69:2
59,70:1
59,71:1
59,72:2
59,80:2
60,23:2
60,24:2
60,25:2
60,26:1
60,27:3
60,28:3
60,32:1
60,33:1
60,34:3
60,35:3
60,36:3
60,38:3
60,39:1
60,40:3
60,43:1
60,44:2
60,49:2
60,50:2
60,51:2
60,53:2
60,58:1
60,59:2
60,62:1
60,63:3
60,65:3
60,66:3
60,67:2
60,68:2
60,70:3
60,71:1
61,23:2
61,24:2
61,25:2
61,26:1
61,27:3
61,28:3
61,32:1
61,33:1
61,34:3
61,35:3
61,36:3
61,38:3
61,39:1
61,40:3
61,43:1
61,44:2
61,49:2
61,50:2
61,51:2
61,53:2
61,58:1
61,59:2
61,62:1
61,63:3
61,65:3
61,66:3
61,67:2
61,68:2
61,70:3
61,71:1
62,19:1
62,22:1
62,23:1
62,24:1
62,25:1
62,27:2
62,28:2
62,29:1
62,31:1
62,34:2
62,35:2
62,36:2
62,37:1
62,38:2
62,40:2
62,41:1
62,42:1
62,44:1
62,45:1
62,46:1
62,47:1
62,48:1
62,49:1
62,50:1
62,51:1
62,52:1
62,53:1
62,59:1
62,60:1
62,61:1
62,63:2
62,64:1
62,65:2
62,66:2
62,67:1
62,68:1
62,69:1
62,70:2
62,72:1
62,80:1
63,19:3
63,22:3
63,23:1
63,24:1
63,25:1
63,26:2
63,29:3
63,31:3
63,32:2
63,33:2
63,37:3
63,39:2
63,41:3
63,42:3
63,43:2
63,44:1
63,45:3
63,46:3
63,47:3
63,48:3
63,49:1
63,50:1
63,51:1
63,52:3
63,53:1
63,58:2
63,59:1
63,60:3
63,61:3
63,62:2
63,64:3
63,67:1
63,68:1
63,69:3
63,71:2
63,72:3
63,80:3
64,23:2
64,24:2
64,25:2
64,26:1
64,27:3
64,28:3
64,32:1
64,33:1
64,34:3
64,35:3
64,36:3
64,38:3
64,39:1
64,40:3
64,43:1
64,44:2
64,49:2
64,50:2
64,51:2
64,53:2
64,58:1
64,59:2
64,62:1
64,63:3
64,65:3
64,66:3
64,67:2
64,68:2
64,70:3
64,71:1
65,19:3
65,22:3
65,23:1
65,24:1
65,25:1
65,26:2
65,29:3
65,31:3
65,32:2
65,33:2
65,37:3
65,39:2
65,41:3
65,42:3
65,43:2
65,44:1
65,45:3
65,46:3
65,47:3
65,48:3
65,49:1
65,50:1
65,51:1
65,52:3
65,53:1
65,58:2
65,59:1
65,60:3
65,61:3
65,62:2
65,64:3
65,67:1
65,68:1
65,69:3
65,71:2
65,72:3
65,80:3
66,19:3
66,22:3
66,23:1
66,24:1
66,25:1
66,26:2
66,29:3
66,31:3
66,32:2
66,33:2
66,37:3
66,39:2
66,41:3
66,42:3
66,43:2
66,44:1
66,45:3
66,46:3
66,47:3
66,48:3
66,49:1
66,50:1
66,51:1
66,52:3
66,53:1
66,58:2
66,59:1
66,60:3
66,61:3
66,62:2
66,64:3
66,67:1
66,68:1
66,69:3
66,71:2
66,72:3
66,80:3
67,19:2
67,22:2
67,26:1
67,27:1
67,28:1
67,29:2
67,31:2
67,32:1
67,33:1
67,34:1
67,35:1
67,36:1
67,37:2
67,38:1
67,39:1
67,40:1
67,41:2
67,42:2
67,43:1
67,45:2
67,46:2
67,47:2
67,48:2
67,52:2
67,69:2
67,70:1
67,71:1
67,72:2
67,73:1
67,80:2
68,21:1
68,30:2
68,48:2
68,54:1
68,57:1
68,58:1
68,60:2
68,61:2
68,62:1
68,63:1
68,64:2
68,65:1
68,66:1
68,69:2
68,70:1
68,71:1
68,72:2
68,73:1
68,74:1
68,75:2
68,76:2
68,77:2
69,16:2
69,21:1
69,54:3
69,55:2
69,56:2
69,57:3
69,58:1
69,59:2
69,62:1
69,63:3
69,65:3
69,66:3
69,67:2
69,68:2
69,70:3
69,71:1
69,73:1
69,74:1
70,16:1
70,21:2
70,30:3
70,48:3
70,55:1
70,56:1
70,58:2
70,59:1
70,60:3
70,61:3
70,62:2
70,64:3
70,67:1
70,68:1
70,69:3
70,71:2
70,72:3
70,73:2
70,74:2
70,75:3
70,76:3
70,77:3
71,16:1
71,30:1
71,48:1
71,54:2
71,55:1
71,56:1
71,57:2
71,59:1
71,60:1
71,61:1
71,63:2
71,64:1
71,65:2
71,66:2
71,67:1
71,68:1
71,69:1
71,70:2
71,72:1
71,80:1
72,16:2
72,21:1
72,54:3
72,55:2
72,56:2
72,57:3
72,58:1
72,59:2
72,62:1
72,63:3
72,65:3
72,66:3
72,67:2
72,71:1
72,73:1
72,74:1
72,78:2
73,48:1
73,68:1
73,69:1
73,70:2
73,72:1
73,80:1
74,48:1
74,68:1
74,69:1
74,70:2
74,72:1
74,75:1
74,76:1
74,80:1
75,68:2
75,70:3
76,68:2
76,70:3
76,78:2
76,79:2
76,81:1
77,68:2
77,70:3
77,78:2
78,48:2
78,76:2
78,80:2
79,48:2
79,76:2
79,80:2
79,81:1
80,16:2
80,21:1
80,54:3
80,55:2
80,56:2
80,57:3
80,58:1
80,59:2
80,62:1
80,63:3
80,65:3
80,66:3
80,67:2
80,71:1
80,73:1
80,74:1
80,78:2
80,79:2
80,81:1
81,48:1
81,85:2
82,48:1
82,85:2
83,48:1
83,85:2
83,86:2
84,48:1
84,85:2
84,86:2
85,48:3
85,82:2
85,83:2
85,84:2
86,48:3
86,87:2
87,48:1
87,88:1
88,89:1
89,48:1
89,88:1

<setup times backward>
1,30:2
2,30:2
3,30:2
4,30:2
5,1:1
5,2:1
5,3:1
5,4:1
5,7:2
5,8:1
5,9:1
5,11:2
5,12:2
5,13:1
5,30:3
6,1:1
6,2:1
6,3:1
6,4:1
6,7:2
6,8:1
6,9:1
6,10:1
6,30:3
7,30:1
8,7:1
8,11:1
8,12:1
8,14:1
8,15:1
8,17:2
8,30:2
9,7:1
9,11:1
9,12:1
9,14:1
9,15:1
9,17:2
9,30:2
10,7:1
10,11:1
10,12:1
10,30:2
11,30:1
12,30:1
13,7:1
13,11:1
13,12:1
13,30:2
14,30:1
15,30:1
16,7:1
16,11:1
16,12:1
16,14:1
16,15:1
16,17:2
16,19:2
16,20:1
16,21:1
16,22:2
16,26:1
16,29:2
16,30:2
16,31:2
16,32:1
16,33:1
16,37:2
16,39:1
16,41:2
16,42:2
16,43:1
16,45:2
16,46:2
16,47:2
16,48:2
16,52:2
16,69:2
16,71:1
16,72:2
16,80:2
18,1:1
18,2:1
18,3:1
18,4:1
18,7:2
18,8:1
18,9:1
18,10:1
18,11:2
18,12:2
18,13:1
18,14:2
18,15:2
18,16:1
18,17:3
18,30:3
20,17:1
20,19:1
20,22:1
20,30:1
21,17:1
21,19:1
21,22:1
21,29:1
21,30:1
21,31:1
21,37:1
21,41:1
21,42:1
21,45:1
21,46:1
21,47:1
21,48:1
21,52:1
21,69:1
21,72:1
21,80:1
23,7:1
23,11:1
23,12:1
23,14:1
23,15:1
23,17:2
23,19:2
23,20:1
23,21:1
23,22:2
23,30:2
23,58:1
23,60:2
23,61:2
23,62:1
23,64:2
24,7:1
24,11:1
24,12:1
24,14:1
24,15:1
24,17:2
24,19:2
24,20:1
24,21:1
24,22:2
24,30:2
24,58:1
24,60:2
24,61:2
24,62:1
24,64:2
25,7:1
25,11:1
25,12:1
25,14:1
25,15:1
25,17:2
25,19:2
25,20:1
25,21:1
25,22:2
25,30:2
25,58:1
25,60:2
25,61:2
25,62:1
25,64:2
26,17:1
26,19:1
26,22:1
26,29:1
26,30:1
26,31:1
26,60:1
26,61:1
26,64:1
27,1:1
27,2:1
27,3:1
27,4:1
27,7:2
27,8:1
27,9:1
27,10:1
27,11:2
27,12:2
27,13:1
27,14:2
27,15:2
27,16:1
27,17:3
27,19:3
27,20:2
27,21:2
27,22:3
27,23:1
27,24:1
27,25:1
27,26:2
27,29:3
27,30:3
27,31:3
27,32:2
27,55:1
27,56:1
27,58:2
27,59:1
27,60:3
27,61:3
27,62:2
27,64:3
27,67:1
28,1:1
28,2:1
28,3:1
28,4:1
28,7:2
28,8:1
28,9:1
28,10:1
28,11:2
28,12:2
28,13:1
28,14:2
28,15:2
28,16:1
28,17:3
28,19:3
28,20:2
28,21:2
28,22:3
28,23:1
28,24:1
28,25:1
28,26:2
28,30:3
28,55:1
28,56:1
28,58:2
28,59:1
28,60:3
28,61:3
28,62:2
28,64:3
28,67:1
32,17:1
32,19:1
32,22:1
32,29:1
32,30:1
32,31:1
32,60:1
32,61:1
32,64:1
33,17:1
33,19:1
33,22:1
33,29:1
33,30:1
33,31:1
33,60:1
33,61:1
33,64:1
34,1:1
34,2:1
34,3:1
34,4:1
34,7:2
34,8:1
34,9:1
34,10:1
34,11:2
34,12:2
34,13:1
34,14:2
34,15:2
34,16:1
34,17:3
34,19:3
34,20:2
34,21:2
34,22:3
34,23:1
34,24:1
34,25:1
34,26:2
34,29:3
34,30:3
34,31:3
34,32:2
34,33:2
34,55:1
34,56:1
34,58:2
34,59:1
34,60:3
34,61:3
34,62:2
34,64:3
34,67:1
35,1:1
35,2:1
35,3:1
35,4:1
35,7:2
35,8:1
35,9:1
35,10:1
35,11:2
35,12:2
35,13:1
35,14:2
35,15:2
35,16:1
35,17:3
35,19:3
35,20:2
35,21:2
35,22:3
35,23:1
35,24:1
35,25:1
35,26:2
35,29:3
35,30:3
35,31:3
35,32:2
35,33:2
35,55:1
35,56:1
35,58:2
35,59:1
35,60:3
35,61:3
35,62:2
35,64:3
35,67:1
36,1:1
36,2:1
36,3:1
36,4:1
36,7:2
36,8:1
36,9:1
36,10:1
36,11:2
36,12:2
36,13:1
36,14:2
36,15:2
36,16:1
36,17:3
36,19:3
36,20:2
36,21:2
36,22:3
36,23:1
36,24:1
36,25:1
36,26:2
36,29:3
36,30:3
36,31:3
36,32:2
36,33:2
36,37:3
36,55:1
36,56:1
36,58:2
36,59:1
36,60:3
36,61:3
36,62:2
36,64:3
36,67:1
38,1:1
38,2:1
38,3:1
38,4:1
38,7:2
38,8:1
38,9:1
38,10:1
38,11:2
38,12:2
38,13:1
38,14:2
38,15:2
38,16:1
38,17:3
38,19:3
38,20:2
38,21:2
38,22:3
38,23:1
38,24:1
38,25:1
38,26:2
38,29:3
38,30:3
38,31:3
38,32:2
38,33:2
38,37:3
38,55:1
38,56:1
38,58:2
38,59:1
38,60:3
38,61:3
38,62:2
38,64:3
38,67:1
39,17:1
39,19:1
39,22:1
39,29:1
39,30:1
39,31:1
39,37:1
39,60:1
39,61:1
39,64:1
40,1:1
40,2:1
40,3:1
40,4:1
40,7:2
40,8:1
40,9:1
40,10:1
40,11:2
40,12:2
40,13:1
40,14:2
40,15:2
40,16:1
40,17:3
40,19:3
40,20:2
40,21:2
40,22:3
40,23:1
40,24:1
40,25:1
40,26:2
40,29:3
40,30:3
40,31:3
40,32:2
40,33:2
40,37:3
40,39:2
40,41:3
40,42:3
40,43:2
40,45:3
40,46:3
40,47:3
40,48:3
40,49:1
40,50:1
40,51:1
40,55:1
40,56:1
40,58:2
40,59:1
40,60:3
40,61:3
40,62:2
40,64:3
40,67:1
43,17:1
43,19:1
43,22:1
43,29:1
43,30:1
43,31:1
43,37:1
43,41:1
43,42:1
43,60:1
43,61:1
43,64:1
44,7:1
44,11:1
44,12:1
44,14:1
44,15:1
44,17:2
44,19:2
44,20:1
44,21:1
44,22:2
44,26:1
44,29:2
44,30:2
44,31:2
44,32:1
44,33:1
44,37:2
44,39:1
44,41:2
44,42:2
44,43:1
44,45:2
44,46:2
44,47:2
44,48:2
44,58:1
44,60:2
44,61:2
44,62:1
44,64:2
49,7:1
49,11:1
49,12:1
49,14:1
49,15:1
49,17:2
49,19:2
49,20:1
49,21:1
49,22:2
49,26:1
49,29:2
49,30:2
49,31:2
49,32:1
49,33:1
49,37:2
49,39:1
49,41:2
49,42:2
49,43:1
49,45:2
49,46:2
49,47:2
49,48:2
49,58:1
49,60:2
49,61:2
49,62:1
49,64:2
50,7:1
50,11:1
50,12:1
50,14:1
50,15:1
50,17:2
50,19:2
50,20:1
50,21:1
50,22:2
50,26:1
50,29:2
50,30:2
50,31:2
50,32:1
50,33:1
50,37:2
50,39:1
50,41:2
50,42:2
50,43:1
50,45:2
50,46:2
50,47:2
50,48:2
50,58:1
50,60:2
50,61:2
50,62:1
50,64:2
51,7:1
51,11:1
51,12:1
51,14:1
51,15:1
51,17:2
51,19:2
51,20:1
51,21:1
51,22:2
51,26:1
51,29:2
51,30:2
51,31:2
51,32:1
51,33:1
51,37:2
51,39:1
51,41:2
51,42:2
51,43:1
51,45:2
51,46:2
51,47:2
51,48:2
51,58:1
51,60:2
51,61:2
51,62:1
51,64:2
53,7:1
53,11:1
53,12:1
53,14:1
53,15:1
53,17:2
53,19:2
53,20:1
53,21:1
53,22:2
53,26:1
53,29:2
53,30:2
53,31:2
53,32:1
53,33:1
53,37:2
53,39:1
53,41:2
53,42:2
53,43:1
53,45:2
53,46:2
53,47:2
53,48:2
53,52:2
53,58:1
53,60:2
53,61:2
53,62:1
53,64:2
54,1:1
54,2:1
54,3:1
54,4:1
54,7:2
54,8:1
54,9:1
54,10:1
54,11:2
54,12:2
54,13:1
54,14:2
54,15:2
54,16:1
54,17:3
54,19:3
54,20:2
54,21:2
54,22:3
54,23:1
54,24:1
54,25:1
54,26:2
54,29:3
54,30:3
54,31:3
54,32:2
54,33:2
54,37:3
54,39:2
54,41:3
54,42:3
54,43:2
54,44:1
54,45:3
54,46:3
54,47:3
54,48:3
54,49:1
54,50:1
54,51:1
54,52:3
54,53:1
54,68:1
54,69:3
54,71:2
54,72:3
54,80:3
55,7:1
55,11:1
55,12:1
55,14:1
55,15:1
55,17:2
55,19:2
55,20:1
55,21:1
55,22:2
55,26:1
55,29:2
55,30:2
55,31:2
55,32:1
55,33:1
55,37:2
55,39:1
55,41:2
55,42:2
55,43:1
55,45:2
55,46:2
55,47:2
55,48:2
55,52:2
55,69:2
55,71:1
55,72:2
55,80:2
56,7:1
56,11:1
56,12:1
56,14:1
56,15:1
56,17:2
56,19:2
56,20:1
56,21:1
56,22:2
56,26:1
56,29:2
56,30:2
56,31:2
56,32:1
56,33:1
56,37:2
56,39:1
56,41:2
56,42:2
56,43:1
56,45:2
56,46:2
56,47:2
56,48:2
56,52:2
56,69:2
56,71:1
56,72:2
56,80:2
57,1:1
57,2:1
57,3:1
57,4:1
57,7:2
57,8:1
57,9:1
57,10:1
57,11:2
57,12:2
57,13:1
57,14:2
57,15:2
57,16:1
57,17:3
57,19:3
57,20:2
57,21:2
57,22:3
57,23:1
57,24:1
57,25:1
57,26:2
57,29:3
57,30:3
57,31:3
57,32:2
57,33:2
57,37:3
57,39:2
57,41:3
57,42:3
57,43:2
57,44:1
57,45:3
57,46:3
57,47:3
57,48:3
57,49:1
57,50:1
57,51:1
57,52:3
57,53:1
57,55:1
57,56:1
57,68:1
57,69:3
57,71:2
57,72:3
57,80:3
58,17:1
58,19:1
58,22:1
58,29:1
58,30:1
58,31:1
58,37:1
58,41:1
58,42:1
58,45:1
58,46:1
58,47:1
58,48:1
58,52:1
58,60:1
58,61:1
58,64:1
58,69:1
58,72:1
58,80:1
59,7:1
59,11:1
59,12:1
59,14:1
59,15:1
59,17:2
59,19:2
59,20:1
59,21:1
59,22:2
59,26:1
59,29:2
59,30:2
59,31:2
59,32:1
59,33:1
59,37:2
59,39:1
59,41:2
59,42:2
59,43:1
59,45:2
59,46:2
59,47:2
59,48:2
59,52:2
59,58:1
59,60:2
59,61:2
59,62:1
59,64:2
59,69:2
59,71:1
59,72:2
59,80:2
62,17:1
62,19:1
62,22:1
62,29:1
62,30:1
62,31:1
62,37:1
62,41:1
62,42:1
62,45:1
62,46:1
62,47:1
62,48:1
62,52:1
62,60:1
62,61:1
62,64:1
62,69:1
62,72:1
62,80:1
63,1:1
63,2:1
63,3:1
63,4:1
63,7:2
63,8:1
63,9:1
63,10:1
63,11:2
63,12:2
63,13:1
63,14:2
63,15:2
63,16:1
63,17:3
63,19:3
63,20:2
63,21:2
63,22:3
63,23:1
63,24:1
63,25:1
63,26:2
63,29:3
63,30:3
63,31:3
63,32:2
63,33:2
63,37:3
63,39:2
63,41:3
63,42:3
63,43:2
63,44:1
63,45:3
63,46:3
63,47:3
63,48:3
63,49:1
63,50:1
63,51:1
63,52:3
63,53:1
63,55:1
63,56:1
63,58:2
63,59:1
63,60:3
63,61:3
63,62:2
63,64:3
63,68:1
63,69:3
63,71:2
63,72:3
63,80:3
65,1:1
65,2:1
65,3:1
65,4:1
65,7:2
65,8:1
65,9:1
65,10:1
65,11:2
65,12:2
65,13:1
65,14:2
65,15:2
65,16:1
65,17:3
65,19:3
65,20:2
65,21:2
65,22:3
65,23:1
65,24:1
65,25:1
65,26:2
65,29:3
65,30:3
65,31:3
65,32:2
65,33:2
65,37:3
65,39:2
65,41:3
65,42:3
65,43:2
65,44:1
65,45:3
65,46:3
65,47:3
65,48:3
65,49:1
65,50:1
65,51:1
65,52:3
65,53:1
65,55:1
65,56:1
65,58:2
65,59:1
65,60:3
65,61:3
65,62:2
65,64:3
65,68:1
65,69:3
65,71:2
65,72:3
65,80:3
66,1:1
66,2:1
66,3:1
66,4:1
66,7:2
66,8:1
66,9:1
66,10:1
66,11:2
66,12:2
66,13:1
66,14:2
66,15:2
66,16:1
66,17:3
66,19:3
66,20:2
66,21:2
66,22:3
66,23:1
66,24:1
66,25:1
66,26:2
66,29:3
66,30:3
66,31:3
66,32:2
66,33:2
66,37:3
66,39:2
66,41:3
66,42:3
66,43:2
66,44:1
66,45:3
66,46:3
66,47:3
66,48:3
66,49:1
66,50:1
66,51:1
66,52:3
66,53:1
66,55:1
66,56:1
66,58:2
66,59:1
66,60:3
66,61:3
66,62:2
66,64:3
66,68:1
66,69:3
66,71:2
66,72:3
66,80:3
67,7:1
67,11:1
67,12:1
67,14:1
67,15:1
67,17:2
67,19:2
67,20:1
67,21:1
67,22:2
67,26:1
67,29:2
67,30:2
67,31:2
67,32:1
67,33:1
67,37:2
67,39:1
67,41:2
67,42:2
67,43:1
67,45:2
67,46:2
67,47:2
67,48:2
67,52:2
67,58:1
67,60:2
67,61:2
67,62:1
67,64:2
67,69:2
67,71:1
67,72:2
67,80:2
68,7:1
68,11:1
68,12:1
68,14:1
68,15:1
68,17:2
68,19:2
68,20:1
68,21:1
68,22:2
68,26:1
68,29:2
68,30:2
68,31:2
68,32:1
68,33:1
68,37:2
68,39:1
68,41:2
68,42:2
68,43:1
68,45:2
68,46:2
68,47:2
68,48:2
68,52:2
68,58:1
68,60:2
68,61:2
68,62:1
68,64:2
68,69:2
68,71:1
68,73:1
68,74:1
68,75:2
68,76:2
68,77:2
70,1:1
70,2:1
70,3:1
70,4:1
70,7:2
70,8:1
70,9:1
70,10:1
70,11:2
70,12:2
70,13:1
70,14:2
70,15:2
70,16:1
70,17:3
70,19:3
70,20:2
70,21:2
70,22:3
70,23:1
70,24:1
70,25:1
70,26:2
70,29:3
70,30:3
70,31:3
70,32:2
70,33:2
70,37:3
70,39:2
70,41:3
70,42:3
70,43:2
70,44:1
70,45:3
70,46:3
70,47:3
70,48:3
70,49:1
70,50:1
70,51:1
70,52:3
70,53:1
70,55:1
70,56:1
70,58:2
70,59:1
70,60:3
70,61:3
70,62:2
70,64:3
70,67:1
70,68:1
70,69:3
70,71:2
70,73:2
70,74:2
70,75:3
70,76:3
70,77:3
71,17:1
71,19:1
71,22:1
71,29:1
71,30:1
71,31:1
71,37:1
71,41:1
71,42:1
71,45:1
71,46:1
71,47:1
71,48:1
71,52:1
71,60:1
71,61:1
71,64:1
71,69:1
71,72:1
71,80:1
73,17:1
73,19:1
73,22:1
73,29:1
73,30:1
73,31:1
73,37:1
73,41:1
73,42:1
73,45:1
73,46:1
73,47:1
73,48:1
73,52:1
73,60:1
73,61:1
73,64:1
73,69:1
73,72:1
73,80:1
74,17:1
74,19:1
74,22:1
74,29:1
74,30:1
74,31:1
74,37:1
74,41:1
74,42:1
74,45:1
74,46:1
74,47:1
74,48:1
74,52:1
74,60:1
74,61:1
74,64:1
74,69:1
74,72:1
74,80:1
78,7:1
78,11:1
78,12:1
78,14:1
78,15:1
78,17:2
78,19:2
78,20:1
78,21:1
78,22:2
78,26:1
78,29:2
78,30:2
78,31:2
78,32:1
78,33:1
78,37:2
78,39:1
78,41:2
78,42:2
78,43:1
78,45:2
78,46:2
78,47:2
78,48:2
78,52:2
78,58:1
78,60:2
78,61:2
78,62:1
78,64:2
78,69:2
78,71:1
78,72:2
78,73:1
78,74:1
78,75:2
78,76:2
78,77:2
78,80:2
79,7:1
79,11:1
79,12:1
79,14:1
79,15:1
79,17:2
79,19:2
79,20:1
79,21:1
79,22:2
79,26:1
79,29:2
79,30:2
79,31:2
79,32:1
79,33:1
79,37:2
79,39:1
79,41:2
79,42:2
79,43:1
79,45:2
79,46:2
79,47:2
79,48:2
79,52:2
79,58:1
79,60:2
79,61:2
79,62:1
79,64:2
79,69:2
79,71:1
79,72:2
79,73:1
79,74:1
79,75:2
79,76:2
79,77:2
79,80:2
81,17:1
81,19:1
81,22:1
81,29:1
81,30:1
81,31:1
81,37:1
81,41:1
81,42:1
81,45:1
81,46:1
81,47:1
81,48:1
81,52:1
81,60:1
81,61:1
81,64:1
81,69:1
81,72:1
81,75:1
81,76:1
81,77:1
81,80:1
82,17:1
82,19:1
82,22:1
82,29:1
82,30:1
82,31:1
82,37:1
82,41:1
82,42:1
82,45:1
82,46:1
82,47:1
82,48:1
82,52:1
82,60:1
82,61:1
82,64:1
82,69:1
82,72:1
82,75:1
82,76:1
82,77:1
82,80:1
83,17:1
83,19:1
83,22:1
83,29:1
83,30:1
83,31:1
83,37:1
83,41:1
83,42:1
83,45:1
83,46:1
83,47:1
83,48:1
83,52:1
83,60:1
83,61:1
83,64:1
83,69:1
83,72:1
83,75:1
83,76:1
83,77:1
83,80:1
84,17:1
84,19:1
84,22:1
84,29:1
84,30:1
84,31:1
84,37:1
84,41:1
84,42:1
84,45:1
84,46:1
84,47:1
84,48:1
84,52:1
84,60:1
84,61:1
84,64:1
84,69:1
84,72:1
84,75:1
84,76:1
84,77:1
84,80:1
85,1:1
85,2:1
85,3:1
85,4:1
85,7:2
85,8:1
85,9:1
85,10:1
85,11:2
85,12:2
85,13:1
85,14:2
85,15:2
85,16:1
85,17:3
85,19:3
85,20:2
85,21:2
85,22:3
85,23:1
85,24:1
85,25:1
85,26:2
85,29:3
85,30:3
85,31:3
85,32:2
85,33:2
85,37:3
85,39:2
85,41:3
85,42:3
85,43:2
85,44:1
85,45:3
85,46:3
85,47:3
85,48:3
85,49:1
85,50:1
85,51:1
85,52:3
85,53:1
85,55:1
85,56:1
85,58:2
85,59:1
85,60:3
85,61:3
85,62:2
85,64:3
85,67:1
85,68:1
85,69:3
85,71:2
85,72:3
85,73:2
85,74:2
85,75:3
85,76:3
85,77:3
85,78:1
85,79:1
85,80:3
85,81:2
85,82:2
85,83:2
85,84:2
86,1:1
86,2:1
86,3:1
86,4:1
86,7:2
86,8:1
86,9:1
86,10:1
86,11:2
86,12:2
86,13:1
86,14:2
86,15:2
86,16:1
86,17:3
86,19:3
86,20:2
86,21:2
86,22:3
86,23:1
86,24:1
86,25:1
86,26:2
86,29:3
86,30:3
86,31:3
86,32:2
86,33:2
86,37:3
86,39:2
86,41:3
86,42:3
86,43:2
86,44:1
86,45:3
86,46:3
86,47:3
86,48:3
86,49:1
86,50:1
86,51:1
86,52:3
86,53:1
86,55:1
86,56:1
86,58:2
86,59:1
86,60:3
86,61:3
86,62:2
86,64:3
86,67:1
86,68:1
86,69:3
86,71:2
86,72:3
86,73:2
86,74:2
86,75:3
86,76:3
86,77:3
86,78:1
86,79:1
86,80:3
86,81:2
86,82:2
86,83:2
86,84:2
87,17:1
87,19:1
87,22:1
87,29:1
87,30:1
87,31:1
87,37:1
87,41:1
87,42:1
87,45:1
87,46:1
87,47:1
87,48:1
87,52:1
87,60:1
87,61:1
87,64:1
87,69:1
87,72:1
87,75:1
87,76:1
87,77:1
87,80:1
89,17:1
89,19:1
89,22:1
89,29:1
89,30:1
89,31:1
89,37:1
89,41:1
89,42:1
89,45:1
89,46:1
89,47:1
89,48:1
89,52:1
89,60:1
89,61:1
89,64:1
89,69:1
89,72:1
89,75:1
89,76:1
89,77:1
89,80:1
89,88:1

<end>

<optimal SALBP-1 value>
49


<rand seed>
467321153

